\ Model vert
\ LP format - for model browsing. Use MPS format to capture full model detail.
Minimize
  235975.7814945324 S_coef + 1888.175776230039 Constant + [
   1.47456e+07 S_coef ^2 ] / 2 
Subject To
Bounds
 -1000 <= S_coef <= 0
 Constant = 1
End
